CMD:
./solvers/bin/cadical --plain --no-reduce -t 1600 ./data/cnfs//arbitrated_top_n4_w16_d32_e0/arbitrated_top_n4_w16_d32_e0.79.cnf

c --- [ banner ] -------------------------------------------------------------
c 
c CaDiCaL SAT Solver
c Copyright (c) 2016-2024
c A. Biere, M. Fleury, N. Froleyks, K. Fazekas, F. Pollitt, T. Faller
c JKU Linz, University of Freiburg, TU Wien
c 
c Version 2.1.3 5296d3d2a9bf48c154ab2acb5e44625776d821bf
c g++ (Gentoo 12.3.1_p20230526 p2) 12.3.1 20230526 -Wall -Wextra -O3 -DNDEBUG
c Sat Aug 9 07:26:21 PDT 2025 Linux cedar2.int.cedar.computecanada.ca 5.14.0-362.24.2.el9_3.x86_64 x86_64
c 
c --- [ limit ] --------------------------------------------------------------
c 
c setting time limit to 1600 seconds real time (due to '-t 1600')
c 
c --- [ parsing input ] ------------------------------------------------------
c 
c reading DIMACS file from './data/cnfs//arbitrated_top_n4_w16_d32_e0/arbitrated_top_n4_w16_d32_e0.79.cnf'
c opening file to read './data/cnfs//arbitrated_top_n4_w16_d32_e0/arbitrated_top_n4_w16_d32_e0.79.cnf'
c found 'p cnf 997671 2968161' header
c parsed 2968161 clauses in 0.40 seconds process time
c 
c --- [ options ] ------------------------------------------------------------
c 
c   --compact=false                (different from default 'true')
c   --decompose=false              (different from default 'true')
c   --deduplicate=false            (different from default 'true')
c   --elim=false                   (different from default 'true')
c   --probe=false                  (different from default 'true')
c   --reduce=false                 (different from default 'true')
c   --subsume=false                (different from default 'true')
c   --ternary=false                (different from default 'true')
c   --transred=false               (different from default 'true')
c   --vivify=false                 (different from default 'true')
c 
c --- [ solving ] ------------------------------------------------------------
c 
c time measured in process time since initialization
c 
c  seconds   reductions  redundant   irredundant
c          MB    restarts       trail        variables
c           level   conflicts       glue           remaining
c 
c *  0.40 393  0 0   0    0    0  0% 0 2314837 526522 53%
c l  0.46 398  0 0   0    0    0  0% 0 2314837 526522 53%
c 1  0.46 398  0 0   0    0    0  0% 0 2314837 526522 53%
c 
c --- [ result ] -------------------------------------------------------------
c 
s SATISFIABLE
v 1 2 3 4 5 6 7 8 9 10 11 12 13 14 15 16 17 18 19 20 21 22 23 24 25 26 27 28
v 29 30 31 32 33 34 35 36 37 38 39 40 41 42 43 44 45 46 47 48 49 50 51 52 53
v 54 55 56 57 58 59 60 61 62 63 64 65 66 67 68 69 70 71 72 73 74 75 76 77 78
v 79 80 81 82 83 84 85 86 87 88 89 90 91 92 93 94 95 96 97 98 99 100 101 102
v 103 104 105 106 107 108 109 110 111 112 113 114 115 116 117 118 119 120 121
v 122 123 124 125 126 127 128 129 130 131 132 133 134 135 136 137 138 139 140
v 141 142 143 144 145 146 147 148 149 150 151 152 153 154 155 156 157 158 159
v 160 161 162 163 164 165 166 167 168 169 170 171 172 173 174 175 176 177 178
v 179 180 181 182 183 184 185 186 187 188 189 190 191 192 193 194 195 196 197
v 198 199 200 201 202 203 204 205 206 207 208 209 210 211 212 213 214 215 216
v 217 218 219 220 221 222 223 224 225 226 227 228 229 230 231 232 233 234 235
v 236 237 238 239 240 241 242 243 244 245 246 247 248 249 250 251 252 253 254
v 255 256 257 258 259 260 261 262 263 264 265 266 267 268 269 270 271 272 273
v 274 275 276 277 278 279 280 281 282 283 284 285 286 287 288 289 290 291 292
v 293 294 295 296 297 298 299 300 301 302 303 304 305 306 307 308 309 310 311
v 312 313 314 315 316 317 318 319 320 321 322 323 324 325 326 327 328 329 330
v 331 332 333 334 335 336 337 338 339 340 341 342 343 344 345 346 347 348 349
v 350 351 352 353 354 355 356 357 358 359 360 361 362 363 364 365 366 367 368
v 369 370 371 372 373 374 375 376 377 378 379 380 381 382 383 384 385 386 387
v 388 389 390 391 392 393 394 395 396 397 398 399 400 401 402 403 404 405 406
v 407 408 409 410 411 412 413 414 415 416 417 418 419 420 421 422 423 424 425
v 426 427 428 429 430 431 432 433 434 435 436 437 438 439 440 441 442 443 444
v 445 446 447 448 449 450 451 452 453 454 455 456 457 458 459 460 461 462 463
v 464 465 466 467 468 469 470 471 472 473 474 475 476 477 478 479 480 481 482
v 483 484 485 486 487 488 489 490 491 492 493 494 495 496 497 498 499 500 501
v 502 503 504 505 506 507 508 509 510 511 512 513 514 515 516 517 518 519 520
v 521 522 523 524 525 526 527 528 529 530 531 532 533 534 535 536 537 538 539
v 540 541 542 543 544 545 546 547 548 549 550 551 552 553 554 555 556 557 558
v 559 560 561 562 563 564 565 566 567 568 569 570 571 572 573 574 575 576 577
v 578 579 580 581 582 583 584 585 586 587 588 589 590 591 592 593 594 595 596
v 597 598 599 600 601 602 603 604 605 606 607 608 609 610 611 612 613 614 615
v 616 617 618 619 620 621 622 623 624 625 626 627 628 629 630 631 632 633 634
v 635 636 637 638 639 640 641 642 643 644 645 646 647 648 649 650 651 652 653
v 654 655 656 657 658 659 660 661 662 663 664 665 666 667 668 669 670 671 672
v 673 674 675 676 677 678 679 680 681 682 683 684 685 686 687 688 689 690 691
v 692 693 694 695 696 697 698 699 700 701 702 703 704 705 706 707 708 709 710
v 711 712 713 714 715 716 717 718 719 720 721 722 723 724 725 726 727 728 729
v 730 731 732 733 734 735 736 737 738 739 740 741 742 743 744 745 746 747 748
v 749 750 751 752 753 754 755 756 757 758 759 760 761 762 763 764 765 766 767
v 768 769 770 771 772 773 774 775 776 777 778 779 780 781 782 783 784 785 786
v 787 788 789 790 791 792 793 794 795 796 797 798 799 800 801 802 803 804 805
v 806 807 808 809 810 811 812 813 814 815 816 817 818 819 820 821 822 823 824
v 825 826 827 828 829 830 831 832 833 834 835 836 837 838 839 840 841 842 843
v 844 845 846 847 848 849 850 851 852 853 854 855 856 857 858 859 860 861 862
v 863 864 865 866 867 868 869 870 871 872 873 874 875 876 877 878 879 880 881
v 882 883 884 885 886 887 888 889 890 891 892 893 894 895 896 897 898 899 900
v 901 902 903 904 905 906 907 908 909 910 911 912 913 914 915 916 917 918 919
... skipped 102889 lines ...
v -997097 -997098 -997099 -997100 997101 -997102 997103 -997104 -997105
v -997106 -997107 -997108 -997109 -997110 -997111 -997112 -997113 -997114
v -997115 -997116 -997117 -997118 -997119 -997120 -997121 -997122 -997123
v -997124 -997125 -997126 -997127 -997128 -997129 -997130 -997131 -997132
v -997133 -997134 -997135 997136 -997137 997138 -997139 -997140 -997141
v -997142 -997143 -997144 -997145 -997146 -997147 -997148 -997149 -997150
v -997151 -997152 -997153 -997154 -997155 -997156 -997157 -997158 -997159
v -997160 -997161 -997162 -997163 -997164 -997165 -997166 -997167 -997168
v -997169 -997170 -997171 997172 -997173 997174 -997175 -997176 -997177
v -997178 -997179 -997180 -997181 -997182 -997183 -997184 -997185 -997186
v -997187 -997188 -997189 -997190 -997191 -997192 -997193 -997194 -997195
v -997196 -997197 -997198 -997199 -997200 -997201 -997202 -997203 -997204
v -997205 -997206 -997207 997208 -997209 997210 -997211 997212 -997213 997214
v -997215 -997216 997217 997218 -997219 -997220 997221 -997222 -997223 -997224
v -997225 -997226 -997227 -997228 -997229 -997230 997231 997232 -997233 997234
v -997235 -997236 -997237 997238 997239 -997240 997241 -997242 -997243 -997244
v 997245 997246 -997247 997248 -997249 -997250 -997251 -997252 997253 -997254
v 997255 997256 -997257 -997258 -997259 997260 -997261 -997262 997263 -997264
v -997265 997266 -997267 -997268 997269 -997270 997271 -997272 -997273 -997274
v -997275 -997276 -997277 -997278 -997279 -997280 -997281 -997282 -997283
v -997284 -997285 -997286 -997287 -997288 -997289 -997290 -997291 -997292
v -997293 -997294 -997295 -997296 -997297 -997298 -997299 -997300 -997301
v -997302 -997303 -997304 997305 -997306 997307 -997308 -997309 -997310
v -997311 -997312 -997313 -997314 -997315 -997316 -997317 -997318 -997319
v -997320 -997321 -997322 -997323 -997324 -997325 -997326 -997327 -997328
v -997329 -997330 -997331 -997332 -997333 -997334 -997335 -997336 -997337
v -997338 -997339 -997340 997341 -997342 997343 -997344 -997345 -997346
v -997347 -997348 -997349 -997350 -997351 -997352 -997353 -997354 -997355
v -997356 -997357 -997358 -997359 -997360 -997361 -997362 -997363 -997364
v -997365 -997366 -997367 -997368 -997369 -997370 -997371 -997372 -997373
v -997374 -997375 -997376 -997377 997378 -997379 -997380 -997381 -997382
v -997383 -997384 -997385 -997386 -997387 -997388 -997389 -997390 -997391
v -997392 -997393 -997394 -997395 -997396 -997397 -997398 -997399 -997400
v -997401 -997402 -997403 -997404 -997405 -997406 -997407 -997408 -997409
v -997410 -997411 -997412 997413 -997414 997415 -997416 -997417 -997418
v -997419 -997420 -997421 -997422 -997423 -997424 -997425 -997426 -997427
v -997428 -997429 -997430 -997431 -997432 -997433 -997434 -997435 -997436
v -997437 -997438 -997439 -997440 -997441 -997442 -997443 -997444 -997445
v -997446 -997447 -997448 997449 -997450 997451 -997452 -997453 -997454
v -997455 -997456 -997457 -997458 -997459 -997460 -997461 -997462 -997463
v -997464 -997465 -997466 -997467 -997468 -997469 -997470 -997471 -997472
v -997473 -997474 -997475 -997476 -997477 -997478 -997479 -997480 -997481
v -997482 -997483 -997484 997485 -997486 997487 -997488 -997489 -997490
v -997491 -997492 -997493 -997494 -997495 -997496 -997497 -997498 -997499
v -997500 -997501 -997502 -997503 -997504 -997505 -997506 -997507 -997508
v -997509 -997510 -997511 -997512 -997513 -997514 -997515 -997516 -997517
v -997518 -997519 -997520 -997521 997522 -997523 997524 -997525 -997526
v -997527 -997528 -997529 -997530 -997531 -997532 -997533 -997534 -997535
v -997536 -997537 -997538 -997539 -997540 -997541 -997542 -997543 -997544
v -997545 -997546 -997547 -997548 -997549 -997550 -997551 -997552 -997553
v -997554 -997555 -997556 -997557 997558 -997559 997560 -997561 -997562
v -997563 -997564 -997565 -997566 -997567 -997568 -997569 -997570 -997571
v -997572 -997573 -997574 -997575 -997576 -997577 -997578 -997579 -997580
v -997581 -997582 -997583 -997584 -997585 -997586 -997587 -997588 -997589
v -997590 -997591 -997592 -997593 997594 -997595 997596 -997597 -997598
v -997599 -997600 -997601 -997602 -997603 -997604 -997605 -997606 -997607
v -997608 -997609 -997610 -997611 -997612 -997613 -997614 -997615 -997616
v -997617 -997618 -997619 -997620 -997621 -997622 -997623 -997624 -997625
v -997626 -997627 -997628 -997629 997630 -997631 997632 -997633 -997634
v -997635 -997636 -997637 -997638 -997639 -997640 -997641 -997642 -997643
v -997644 -997645 -997646 -997647 -997648 -997649 -997650 -997651 -997652
v -997653 -997654 -997655 -997656 -997657 -997658 -997659 -997660 -997661
v -997662 -997663 -997664 -997665 997666 -997667 997668 -997669 997670 -997671
v 0
c 
c --- [ run-time profiling ] -------------------------------------------------
c 
c process time taken by individual solving procedures
c (percentage relative to process time for solving)
c 
c         0.40  678.02% parse
c         0.06   99.78% lucky
c         0.06   99.78% search
c         0.00    0.00% simplify
c   =================================
c         0.06   11.76% solve
c 
c last line shows process time for solving
c (percentage relative to total process time)
c 
c --- [ statistics ] ---------------------------------------------------------
c 
c fixed:                    471088        47.22 %  of all variables
c lucky:                         1       100.00 %  of tried
c minimized:                     0         0.00 %  learned literals
c shrunken:                      0         0.00 %  learned literals
c minishrunken:                  0         0.00 %  learned literals
c propagations:             471088         8.06 M  per second
c 
c seconds are measured in process time for solving
c 
c --- [ resources ] ----------------------------------------------------------
c 
c total process time since initialization:         0.50    seconds
c total real time since initialization:            0.51    seconds
c maximum resident set size of process:          396.77    MB
c 
c --- [ shutting down ] ------------------------------------------------------
c 
c exit 10
